[TITLE]

[JUNCTIONS]
;ID                      Elevation       Demand Pattern                 
 J1                             44.22         0.64225 PEAK                       ;
 J2                              45.3         0.10986 PEAK                       ;
 J3                              45.3         0.30129 PEAK                       ;
 J4                             37.76         0.73722 PEAK                       ;
 J5                             46.29          0.2696 PEAK                       ;
 J6                             46.83         0.06677 PEAK                       ;
 J7                             46.83         0.27467 PEAK                       ;
 J8                             45.92         0.32208 PEAK                       ;
 J9                              43.3          0.0048 PEAK                       ;
 J10                             46.4          0.1562 PEAK                       ;
 J11                            44.73         0.16274 PEAK                       ;
 J12                            43.89         0.04394 PEAK                       ;
 J13                            41.21         0.47204 PEAK                       ;
 J14                            42.22         0.00653 PEAK                       ;
 J15                            42.21         0.01904 PEAK                       ;
 J16                            42.33         0.00722 PEAK                       ;
 J17                            42.33         0.00311 PEAK                       ;
 J18                            42.41         0.04178 PEAK                       ;
 J19                            40.42          0.0222 PEAK                       ;
 J20                            41.87         0.08663 PEAK                       ;
 J21                            42.59          0.0044 PEAK                       ;
 J22                            42.59          0.0066 PEAK                       ;
 J23                            42.66          0.0688 PEAK                       ;
 J24                             42.7         0.02498 PEAK                       ;
 J25                            42.35         0.14999 PEAK                       ;
 J26                            42.35         0.12061 PEAK                       ;
 J27                            44.82         0.63087 PEAK                       ;
 J28                            41.51         0.55135 PEAK                       ;
 J29                            40.77         0.03796 PEAK                       ;
 J30                            42.31         0.10456 PEAK                       ;
 J31                            36.71         0.02256 PEAK                       ;
 J32                            44.21         0.38162 PEAK                       ;
 J33                            41.56         0.09719 PEAK                       ;
 J34                            39.63         0.06053 PEAK                       ;
 J35                             53.3         0.36426 PEAK                       ;
 J36                            46.31         0.08794 PEAK                       ;
 J37                            40.37          0.0335 PEAK                       ;
 J38                            46.79         0.03618 PEAK                       ;
 J39                            46.95          0.0169 PEAK                       ;
 J40                            47.79         0.41305 PEAK                       ;
 J41                            46.95         0.28405 PEAK                       ;
 J42                            41.32         0.03323 PEAK                       ;
 J43                            41.73         0.02052 PEAK                       ;
 J44                            40.74          0.0214 PEAK                       ;
 J45                             41.3         0.03616 PEAK                       ;
 J46                            47.13         0.14607 PEAK                       ;
 J47                            40.69          0.0342 PEAK                       ;
 J48                            41.73          0.0301 PEAK                       ;
 J49                             41.3         0.03784 PEAK                       ;
 J50                            47.66         0.36026 PEAK                       ;
 J51                            47.69         0.13414 PEAK                       ;
 J52                            40.69         0.02404 PEAK                       ;
 J53                            44.58         0.10573 PEAK                       ;
 J54                            42.09         0.06726 PEAK                       ;
 J55                            46.34          0.0872 PEAK                       ;
 J56                            42.94         0.03937 PEAK                       ;
 J57                            54.27         0.10019 PEAK                       ;
 J58                            57.29         0.03322 PEAK                       ;
 J59                            42.69         0.02808 PEAK                       ;
 J60                            57.29         0.00174 PEAK                       ;
 J61                            56.93         0.00429 PEAK                       ;
 J62                            58.34         0.16176 PEAK                       ;
 J63                            56.77         0.00346 PEAK                       ;
 J64                            56.52         0.01084 PEAK                       ;
 J65                            56.52         0.00274 PEAK                       ;
 J66                            51.37         0.09521 PEAK                       ;
 J67                            44.94         0.04214 PEAK                       ;
 J68                            51.37         0.00399 PEAK                       ;
 J69                            43.95          0.0979 PEAK                       ;
 J70                            51.37         0.01459 PEAK                       ;
 J71                            57.04         0.04594 PEAK                       ;
 J72                            42.25         0.02432 PEAK                       ;
 J73                            56.77         0.01694 PEAK                       ;
 J74                            52.58         0.00914 PEAK                       ;
 J75                            43.95         0.00934 PEAK                       ;
 J76                            56.62         0.03351 PEAK                       ;
 J77                            52.58         0.03961 PEAK                       ;
 J78                            52.58         0.00551 PEAK                       ;
 J79                            43.95         0.01285 PEAK                       ;
 J80                            43.95         0.02335 PEAK                       ;
 J81                            43.87         0.01795 PEAK                       ;
 J82                            51.16         0.00525 PEAK                       ;
 J83                            50.41         0.22915 PEAK                       ;
 J84                            52.58         0.03524 PEAK                       ;
 J85                            46.24         0.02482 PEAK                       ;
 J86                            51.24         0.00201 PEAK                       ;
 J87                            51.22          0.0192 PEAK                       ;
 J88                            42.79         0.02519 PEAK                       ;
 J89                            52.58          0.0691 PEAK                       ;
 J90                            46.24         0.03665 PEAK                       ;
 J91                            51.08         0.00502 PEAK                       ;
 J92                            44.84         0.02254 PEAK                       ;
 J93                            44.56         0.02588 PEAK                       ;
 J94                            52.04         0.15579 PEAK                       ;
 J95                            51.15         0.00252 PEAK                       ;
 J96                            44.51         0.04483 PEAK                       ;
 J97                            51.15         0.00419 PEAK                       ;
 J98                            43.33         0.03157 PEAK                       ;
 J99                            50.96         0.03348 PEAK                       ;
 J100                           47.71         0.11903 PEAK                       ;
 J101                           52.04         0.02164 PEAK                       ;
 J102                           51.53         0.02113 PEAK                       ;
 J103                           45.38         0.02029 PEAK                       ;
 J104                           44.56         0.03108 PEAK                       ;
 J105                           47.71         0.00794 PEAK                       ;
 J106                           47.71         0.00046 PEAK                       ;
 J107                           47.71         0.01496 PEAK                       ;
 J108                           47.71         0.00138 PEAK                       ;
 J109                           52.75         0.01791 PEAK                       ;
 J110                           47.71         0.04649 PEAK                       ;
 J111                           45.38         0.03278 PEAK                       ;
 J112                           45.96          0.0134 PEAK                       ;
 J113                           51.69         0.02038 PEAK                       ;
 J114                           45.74         0.04685 PEAK                       ;
 J115                           45.96         0.02253 PEAK                       ;
 J116                           51.21         0.28439 PEAK                       ;
 J117                           52.75         0.04565 PEAK                       ;
 J118                           51.21         0.15353 PEAK                       ;
 J119                           48.31         0.05765 PEAK                       ;
 J120                           51.31         0.15566 PEAK                       ;
 J121                           48.31         0.02411 PEAK                       ;
 J122                           51.14          0.1651 PEAK                       ;
 J123                           50.56          0.3149 PEAK                       ;
 J124                           47.42         0.02022 PEAK                       ;
 J125                           43.97         0.05782 PEAK                       ;
 J126                           48.31         0.05096 PEAK                       ;
 J127                           51.74         0.10594 PEAK                       ;
 J128                           47.42         0.03495 PEAK                       ;
 J129                           50.55         0.28903 PEAK                       ;
 J130                           53.42         0.06986 PEAK                       ;
 J131                           48.75         0.04092 PEAK                       ;
 J132                           48.41         0.03715 PEAK                       ;
 J133                           48.28         0.03815 PEAK                       ;
 J134                           49.61         0.01363 PEAK                       ;
 J135                           50.55         0.12941 PEAK                       ;
 J136                           48.28         0.03831 PEAK                       ;
 J137                           50.82         0.01053 PEAK                       ;
 J138                           51.72         0.07228 PEAK                       ;
 J139                           48.64         0.04471 PEAK                       ;
 J140                           48.02         0.08885 PEAK                       ;
 J141                           52.02         0.02261 PEAK                       ;
 J142                           53.34         0.11418 PEAK                       ;
 J143                           48.68         0.01557 PEAK                       ;
 J144                           48.86          0.0131 PEAK                       ;
 J145                              60         0.08032 PEAK                       ;
 J146                           58.24         0.10413 PEAK                       ;
 J147                              60         0.00309 PEAK                       ;
 J148                           58.24         0.00654 PEAK                       ;
 J149                              60         0.37902 PEAK                       ;
 J150                           58.24         0.00703 PEAK                       ;
 J151                              60         0.05235 PEAK                       ;
 J152                           49.25         0.03608 PEAK                       ;
 J153                           48.92         0.05081 PEAK                       ;
 J154                           58.24         0.08337 PEAK                       ;
 J155                           49.27         0.01314 PEAK                       ;
 J156                           53.78         0.03586 PEAK                       ;
 J157                           49.32         0.01571 PEAK                       ;
 J158                           55.35         0.03547 PEAK                       ;
 J159                           49.36         0.03359 PEAK                       ;
 J160                           49.36         0.01769 PEAK                       ;
 J161                           57.52         0.06532 PEAK                       ;
 J162                           51.71         0.04024 PEAK                       ;
 J163                           49.32         0.04169 PEAK                       ;
 J164                           49.36         0.00885 PEAK                       ;
 J165                            51.4         0.18721 PEAK                       ;
 J166                           57.52         0.01125 PEAK                       ;
 J167                           57.52         0.04714 PEAK                       ;
 J168                           56.72         0.06167 PEAK                       ;
 J169                           49.47         0.01407 PEAK                       ;
 J170                           58.29         0.16011 PEAK                       ;
 J171                           51.66         0.16708 PEAK                       ;
 J172                           49.47         0.00507 PEAK                       ;
 J173                           56.25         0.01479 PEAK                       ;
 J174                           56.72          0.0115 PEAK                       ;
 J175                           49.66         0.06765 PEAK                       ;
 J176                            54.6         0.17377 PEAK                       ;
 J177                           49.53         0.02347 PEAK                       ;
 J178                           56.72         0.02315 PEAK                       ;
 J179                           51.84         0.00516 PEAK                       ;
 J180                           55.38         0.21448 PEAK                       ;
 J181                           51.86         0.05629 PEAK                       ;
 J182                           51.85         0.00327 PEAK                       ;
 J183                           51.86         0.07692 PEAK                       ;
 J184                           49.29          0.0461 PEAK                       ;
 J185                           52.55          0.4453 PEAK                       ;
 J186                            54.7         0.05242 PEAK                       ;
 J187                           54.52         0.02756 PEAK                       ;
 J188                           54.52         0.09754 PEAK                       ;
 J189                           54.52         0.01167 PEAK                       ;
 J190                           57.55         0.02096 PEAK                       ;
 J191                           49.96          0.0241 PEAK                       ;
 J192                           50.52         0.08861 PEAK                       ;
 J193                           50.05         0.00319 PEAK                       ;
 J194                           56.93         0.08873 PEAK                       ;
 J195                           50.05         0.00591 PEAK                       ;
 J196                           57.55         0.00575 PEAK                       ;
 J197                           54.65         0.32946 PEAK                       ;
 J198                           50.05          0.0074 PEAK                       ;
 J199                           50.07         0.02868 PEAK                       ;
 J200                           57.34         0.01529 PEAK                       ;
 J201                           53.69          0.0207 PEAK                       ;
 J202                           57.39         0.00707 PEAK                       ;
 J203                              50         0.05159 PEAK                       ;
 J204                           53.69         0.02862 PEAK                       ;
 J205                           53.69         0.02564 PEAK                       ;
 J206                           53.87            0.28 PEAK                       ;
 J207                           57.32         0.00627 PEAK                       ;
 J208                            57.4         0.02545 PEAK                       ;
 J209                           57.21         0.00339 PEAK                       ;
 J210                           57.21         0.00577 PEAK                       ;
 J211                           57.21         0.00554 PEAK                       ;
 J212                           63.58         0.09242 PEAK                       ;
 J213                           59.42         0.05677 PEAK                       ;
 J214                           56.91         0.01127 PEAK                       ;
 J215                           50.65         0.02224 PEAK                       ;
 J216                           66.61         0.10475 PEAK                       ;
 J217                           50.65         0.04506 PEAK                       ;
 J218                           50.98         0.06305 PEAK                       ;
 J219                           53.61         0.15501 PEAK                       ;
 J220                           54.43         0.23449 PEAK                       ;
 J221                           56.92         0.06169 PEAK                       ;
 J222                           56.64         0.00595 PEAK                       ;
 J223                           53.69         0.03212 PEAK                       ;
 J224                           56.64         0.00976 PEAK                       ;
 J225                           51.72         0.13392 PEAK                       ;
 J226                           53.08         0.01888 PEAK                       ;
 J227                           53.08         0.02945 PEAK                       ;
 J228                           51.24         0.02666 PEAK                       ;
 J229                           53.69         0.05288 PEAK                       ;
 J230                           51.16         0.04081 PEAK                       ;
 J231                           56.67         0.02945 PEAK                       ;
 J232                           53.39         0.09694 PEAK                       ;
 J233                           56.68         0.10689 PEAK                       ;
 J234                           50.34         0.01107 PEAK                       ;
 J235                           50.72          0.0305 PEAK                       ;
 J236                            56.5         0.16414 PEAK                       ;
 J237                           51.22         0.03132 PEAK                       ;
 J238                           53.48         0.06341 PEAK                       ;
 J239                           50.15         0.04606 PEAK                       ;
 J240                           51.09         0.00932 PEAK                       ;
 J241                           48.33         0.32469 PEAK                       ;
 J242                           50.45         0.02097 PEAK                       ;
 J243                           48.28          0.0258 PEAK                       ;
 J244                           48.22         0.01656 PEAK                       ;
 J245                           48.19         0.04632 PEAK                       ;
 J246                           56.32         0.29788 PEAK                       ;
 J247                           49.29         0.08998 PEAK                       ;
 J248                           47.36         0.07644 PEAK                       ;
 J249                            50.2         0.10655 PEAK                       ;
 J250                           49.68         0.07428 PEAK                       ;
 J251                            50.9         0.06378 PEAK                       ;
 J252                            50.2         0.22245 PEAK                       ;
 J253                           48.58         0.05989 PEAK                       ;
 J254                           49.68         0.05532 PEAK                       ;
 J255                           48.73         0.08052 PEAK                       ;
 J256                           48.75         0.04869 PEAK                       ;
 J257                           49.86         0.04894 PEAK                       ;
 J258                            50.9         0.03171 PEAK                       ;
 J259                           49.27         0.04916 PEAK                       ;
 J260                           48.58          0.0158 PEAK                       ;
 J261                           48.58         0.00261 PEAK                       ;
 J262                           48.58          0.0098 PEAK                       ;
 J263                           48.75         0.00867 PEAK                       ;
 J264                           48.74          0.0032 PEAK                       ;
 J265                           48.74          0.0031 PEAK                       ;
 J266                           48.73          0.0189 PEAK                       ;
 J267                           49.27         0.02917 PEAK                       ;
 J268                           49.42          0.0266 PEAK                       ;
 J269                           48.58         0.01418 PEAK                       ;
 J270                           47.71         0.02739 PEAK                       ;
 J271                           48.58          0.0219 PEAK                       ;
 J272                           48.74         0.01022 PEAK                       ;
 J273                           48.75         0.02205 PEAK                       ;
 J274                           47.71         0.02486 PEAK                       ;
 J275                           47.71          0.0412 PEAK                       ;

[RESERVOIRS]
;ID                                   Head                  Pattern
 R1                      111.71059452                            ;

[TANKS]
;ID                              Elevation           Init Level            Min Level            Max Level             Diameter           Min Volume Volume Curve         Overflow            

[PIPES]
;ID                   Node1                Node2                              Length             Diameter            Roughness           Minor Loss               Status
 P_SRC                R1                   J73                               25             300             130               0                 Open   ;
 P1                   J1                   J3                             71.16              50             110               0                 Open   ;
 P2                   J3                   J2                             23.81              50             110               0                 Open   ;
 P3                   J3                   J8                             85.88             100             110               0                 Open   ;
 P4                   J3                   J6                            162.95             100             110               0                 Open   ;
 P5                   J4                   J3                            325.56              50             120               0                 Open   ;
 P6                   J6                   J5                              29.8              50             110               0                 Open   ;
 P7                   J6                   J7                              6.23              50             110               0                 Open   ;
 P8                   J6                   J8                             91.54             100             110               0                 Open   ;
 P9                   J8                   J32                           270.89             100             110               0                 Open   ;
 P10                  J9                   J29                            147.8              50             110               0                 Open   ;
 P11                  J11                  J10                            64.22              50             110               0                 Open   ;
 P12                  J11                  J12                            22.93              50             110               0                 Open   ;
 P13                  J11                  J23                           128.31             100             110               0                 Open   ;
 P14                  J25                  J13                            95.76              50             110               0                 Open   ;
 P15                  J16                  J14                            13.78              50             110               0                 Open   ;
 P16                  J16                  J15                            19.57              50             110               0                 Open   ;
 P17                  J17                  J16                             8.74              40             110               0                 Open   ;
 P18                  J17                  J18                            10.27              40             110               0                 Open   ;
 P19                  J22                  J17                            19.63              40             110               0                 Open   ;
 P20                  J19                  J21                            61.12              40             110               0                 Open   ;
 P21                  J25                  J20                             37.5              50             110               0                 Open   ;
 P22                  J21                  J24                            32.43              40             110               0                 Open   ;
 P23                  J21                  J22                             0.68              40             110               0                 Open   ;
 P24                  J22                  J23                            28.96              40             110               0                 Open   ;
 P25                  J23                  J30                            86.71              40             110               0                 Open   ;
 P26                  J26                  J25                            17.57             100             110               0                 Open   ;
 P27                  J26                  J28                           142.54              50             110               0                 Open   ;
 P28                  J68                  J26                           429.58             150             110               0                 Open   ;
 P29                  J27                  J32                            82.48              50             100               0                 Open   ;
 P30                  J29                  J31                            40.85             100             110               0                 Open   ;
 P31                  J29                  J31                            52.97             100             110               0                 Open   ;
 P32                  J30                  J29                            59.85              40             110               0                 Open   ;
 P33                  J30                  J33                            88.97             100             110               0                 Open   ;
 P34                  J31                  J42                            290.1              75             100               0                 Open   ;
 P35                  J31                  J34                            25.56             250             110               0                 Open   ;
 P36                  J32                  J66                           122.14             100             110               0                 Open   ;
 P37                  J94                  J32                            273.8             100             110               0                 Open   ;
 P38                  J33                  J75                           134.07             250             110               0                 Open   ;
 P39                  J33                  J34                            25.99             250             110               0                 Open   ;
 P40                  J34                  J44                           162.66              50             100               0                 Open   ;
 P41                  J34                  J45                           132.27             250             110               0                 Open   ;
 P42                  J64                  J35                           112.36              50             110               0                 Open   ;
 P43                  J36                  J82                            330.5              50             110               0                 Open   ;
 P44                  J37                  J42                            46.73              50             110               0                 Open   ;
 P45                  J41                  J38                            16.86              50             120               0                 Open   ;
 P46                  J39                  J41                             7.02              40             110               0                 Open   ;
 P47                  J40                  J189                          484.93              40             110               0                 Open   ;
 P48                  J120                 J41                            315.7             100             110               0                 Open   ;
 P49                  J42                  J59                            45.25             100             110               0                 Open   ;
 P50                  J42                  J56                            50.43             100             110               0                 Open   ;
 P51                  J48                  J43                            18.47              50             100               0                 Open   ;
 P52                  J45                  J48                            54.24              40             110               0                 Open   ;
 P53                  J45                  J49                            16.54              40             110               0                 Open   ;
 P54                  J123                 J46                           126.95              50             110               0                 Open   ;
 P55                  J52                  J47                             17.8              50             110               0                 Open   ;
 P56                  J48                  J52                            51.11             100             110               0                 Open   ;
 P57                  J51                  J50                            86.14              50             110               0                 Open   ;
 P58                  J122                 J51                           105.44             100             110               0                 Open   ;
 P59                  J51                  J55                             39.9              50             110               0                 Open   ;
 P60                  J52                  J56                            56.64             100             110               0                 Open   ;
 P61                  J52                  J67                            50.63              50             110               0                 Open   ;
 P62                  J53                  J119                           117.7              50             100               0                 Open   ;
 P63                  J54                  J88                           133.84              50             110               0                 Open   ;
 P64                  J56                  J59                            37.64              75             100               0                 Open   ;
 P65                  J74                  J57                            27.92              50             110               0                 Open   ;
 P66                  J58                  J64                            33.88              50             110               0                 Open   ;
 P67                  J59                  J119                          100.14             100             100               0                 Open   ;
 P68                  J59                  J119                          116.15              75             100               0                 Open   ;
 P69                  J59                  J90                            49.22             100             100               0                 Open   ;
 P70                  J60                  J71                            19.11              50             110               0                 Open   ;
 P71                  J61                  J65                            24.34              50             110               0                 Open   ;
 P72                  J62                  J71                            48.72              50             110               0                 Open   ;
 P73                  J73                  J63                            12.22              50             110               0                 Open   ;
 P74                  J65                  J64                             1.17              50             110               0                 Open   ;
 P75                  J64                  J74                            34.61              50             110               0                 Open   ;
 P76                  J76                  J65                            12.01              50             110               0                 Open   ;
 P77                  J65                  J74                             34.6              50             110               0                 Open   ;
 P78                  J66                  J68                             3.68             100             110               0                 Open   ;
 P79                  J70                  J66                             6.95             100             110               0                 Open   ;
 P80                  J68                  J82                             15.2             100             110               0                 Open   ;
 P81                  J70                  J68                             2.49             100             110               0                 Open   ;
 P82                  J75                  J69                            11.69              50             110               0                 Open   ;
 P83                  J94                  J70                           103.34             100             110               0                 Open   ;
 P84                  J71                  J73                            35.95             100             110               0                 Open   ;
 P85                  J71                  J73                             8.64             100             110               0                 Open   ;
 P86                  J88                  J72                            19.35              50             110               0                 Open   ;
 P87                  J73                  J105                          172.29             300             100               0                 Open   ;
 P88                  J84                  J74                            11.31              50             100               0                 Open   ;
 P89                  J74                  J77                            21.38             300             100               0                 Open   ;
 P90                  J74                  J78                            21.43             300             100               0                 Open   ;
 P91                  J75                  J79                             5.31             100             110               0                 Open   ;
 P92                  J78                  J77                             0.52             300             100               0                 Open   ;
 P93                  J77                  J100                           97.88             150             110               0                 Open   ;
 P94                  J89                  J78                            10.56              50             100               0                 Open   ;
 P95                  J78                  J105                          106.46             150             110               0                 Open   ;
 P96                  J79                  J125                          110.71              40             110               0                 Open   ;
 P97                  J79                  J80                             7.07              50             110               0                 Open   ;
 P98                  J98                  J81                            20.83              50             110               0                 Open   ;
 P99                  J82                  J87                            19.67             100             110               0                 Open   ;
 P100                 J82                  J87                            15.87             100             110               0                 Open   ;
 P101                 J91                  J82                             11.3             100             110               0                 Open   ;
 P102                 J91                  J83                             49.5              50             110               0                 Open   ;
 P103                 J85                  J90                            23.28              50             100               0                 Open   ;
 P104                 J86                  J95                            10.83              50             110               0                 Open   ;
 P105                 J87                  J101                           85.86             100             110               0                 Open   ;
 P106                 J87                  J97                            11.47             100             110               0                 Open   ;
 P107                 J88                  J98                            24.79             100             110               0                 Open   ;
 P108                 J121                 J90                            46.81             100             100               0                 Open   ;
 P109                 J90                  J104                           63.02              75             100               0                 Open   ;
 P110                 J95                  J91                            15.13             100             110               0                 Open   ;
 P111                 J91                  J99                             9.86              50             110               0                 Open   ;
 P112                 J92                  J112                            39.3              50             110               0                 Open   ;
 P113                 J104                 J93                            16.34              50             110               0                 Open   ;
 P114                 J100                 J94                             65.3             150             110               0                 Open   ;
 P115                 J101                 J94                             9.88             100             110               0                 Open   ;
 P116                 J97                  J95                             2.09             100             110               0                 Open   ;
 P117                 J112                 J96                            36.29              50             110               0                 Open   ;
 P118                 J97                  J102                           22.59             100             110               0                 Open   ;
 P119                 J102                 J97                            22.59             100             110               0                 Open   ;
 P120                 J97                  J130                           78.54              50             110               0                 Open   ;
 P121                 J98                  J112                           47.67             100             110               0                 Open   ;
 P122                 J100                 J106                           10.54             150             110               0                 Open   ;
 P123                 J101                 J107                           60.02             100             110               0                 Open   ;
 P124                 J109                 J101                           34.28             100             110               0                 Open   ;
 P125                 J109                 J102                           35.89             100             110               0                 Open   ;
 P126                 J102                 J113                           17.42              50             110               0                 Open   ;
 P127                 J111                 J103                           13.54              50             110               0                 Open   ;
 P128                 J104                 J111                           38.69             100             110               0                 Open   ;
 P129                 J105                 J106                            1.54             150             110               0                 Open   ;
 P130                 J105                 J110                            4.22             200             110               0                 Open   ;
 P131                 J106                 J107                            5.63             150             110               0                 Open   ;
 P132                 J106                 J108                            3.27             150             110               0                 Open   ;
 P133                 J108                 J107                            5.07             150             110               0                 Open   ;
 P134                 J110                 J108                             1.7             150             110               0                 Open   ;
 P135                 J127                 J109                            74.8              50             110               0                 Open   ;
 P136                 J109                 J117                           10.85              50             110               0                 Open   ;
 P137                 J110                 J146                          150.16             200             110               0                 Open   ;
 P138                 J110                 J146                          149.32             100             110               0                 Open   ;
 P139                 J111                 J128                            83.9             100             110               0                 Open   ;
 P140                 J115                 J112                            8.25             100             110               0                 Open   ;
 P141                 J112                 J115                            9.32             100             110               0                 Open   ;
 P142                 J114                 J128                           57.73              50             110               0                 Open   ;
 P143                 J131                 J115                           44.06             100             110               0                 Open   ;
 P144                 J115                 J184                          265.93              40             110               0                 Open   ;
 P145                 J188                 J116                          189.78              50             120               0                 Open   ;
 P146                 J118                 J188                          207.19              50             120               0                 Open   ;
 P147                 J119                 J123                          125.62              75             100               0                 Open   ;
 P148                 J119                 J126                           16.72              50             100               0                 Open   ;
 P149                 J120                 J185                          190.78              50             120               0                 Open   ;
 P150                 J120                 J122                           32.54             250             110               0                 Open   ;
 P151                 J122                 J120                           32.55             250             110               0                 Open   ;
 P152                 J121                 J134                           72.13              75             100               0                 Open   ;
 P153                 J121                 J138                           56.61             100             100               0                 Open   ;
 P154                 J123                 J122                           98.28             100             110               0                 Open   ;
 P155                 J122                 J241                           433.4              50             120               0                 Open   ;
 P156                 J128                 J124                           13.22              50             110               0                 Open   ;
 P157                 J128                 J131                           39.59             100             110               0                 Open   ;
 P158                 J129                 J135                           30.55              50             110               0                 Open   ;
 P159                 J158                 J129                          312.22              40             120               0                 Open   ;
 P160                 J129                 J165                          105.63              50             110               0                 Open   ;
 P161                 J131                 J136                           44.63             100             110               0                 Open   ;
 P162                 J136                 J131                           44.63             100             110               0                 Open   ;
 P163                 J132                 J134                           12.58              50             100               0                 Open   ;
 P164                 J133                 J136                           11.28              50             110               0                 Open   ;
 P165                 J134                 J137                           15.62              75             100               0                 Open   ;
 P166                 J134                 J143                            58.9             100             110               0                 Open   ;
 P167                 J136                 J140                           62.77              50             110               0                 Open   ;
 P168                 J137                 J141                           10.08              50             100               0                 Open   ;
 P169                 J137                 J138                           37.43              75             100               0                 Open   ;
 P170                 J144                 J137                           54.63              75             100               0                 Open   ;
 P171                 J138                 J162                           61.83             100             100               0                 Open   ;
 P172                 J139                 J143                           13.71              50             120               0                 Open   ;
 P173                 J156                 J142                           52.67              50             100               0                 Open   ;
 P174                 J143                 J144                           17.83              50             120               0                 Open   ;
 P175                 J143                 J155                           63.58              50             120               0                 Open   ;
 P176                 J144                 J153                           11.46              50             120               0                 Open   ;
 P177                 J157                 J144                           64.71              50             120               0                 Open   ;
 P178                 J148                 J145                           56.19              50             120               0                 Open   ;
 P179                 J146                 J148                            6.18              50             120               0                 Open   ;
 P180                 J170                 J146                          148.04              50             100               0                 Open   ;
 P181                 J146                 J150                           10.39             200             120               0                 Open   ;
 P182                 J146                 J148                            7.62              50             120               0                 Open   ;
 P183                 J147                 J151                            2.17             100             110               0                 Open   ;
 P184                 J147                 J151                            8.71             100             110               0                 Open   ;
 P185                 J147                 J149                            7.85              50             110               0                 Open   ;
 P186                 J150                 J147                            56.6              50             120               0                 Open   ;
 P187                 J148                 J150                            1.96              50             120               0                 Open   ;
 P188                 J150                 J154                            7.01             200             120               0                 Open   ;
 P189                 J151                 J154                           47.67              50             120               0                 Open   ;
 P190                 J151                 J154                           47.45              50             120               0                 Open   ;
 P191                 J152                 J155                           10.43              50             110               0                 Open   ;
 P192                 J154                 J233                          280.15             200             100               0                 Open   ;
 P193                 J154                 J216                          198.57              50             100               0                 Open   ;
 P194                 J155                 J157                           18.02              50             110               0                 Open   ;
 P195                 J155                 J164                           63.34              50             110               0                 Open   ;
 P196                 J156                 J168                           27.15              50             120               0                 Open   ;
 P197                 J156                 J158                            32.2              75             120               0                 Open   ;
 P198                 J157                 J163                           13.74              50             110               0                 Open   ;
 P199                 J169                 J157                           56.35              50             110               0                 Open   ;
 P200                 J190                 J158                           65.86              75             120               0                 Open   ;
 P201                 J158                 J173                           24.74              75             120               0                 Open   ;
 P202                 J159                 J164                            9.11              50             110               0                 Open   ;
 P203                 J160                 J169                           17.15              50             110               0                 Open   ;
 P204                 J166                 J161                           11.73              50             120               0                 Open   ;
 P205                 J162                 J179                           24.46             100             110               0                 Open   ;
 P206                 J162                 J191                          185.19             150             110               0                 Open   ;
 P207                 J164                 J172                           18.03              50             110               0                 Open   ;
 P208                 J164                 J175                           61.57              40             110               0                 Open   ;
 P209                 J174                 J166                           39.89              75             120               0                 Open   ;
 P210                 J166                 J167                            7.41              50             120               0                 Open   ;
 P211                 J169                 J191                           51.13              40             110               0                 Open   ;
 P212                 J172                 J169                            9.04              50             110               0                 Open   ;
 P213                 J179                 J171                           15.93              50             110               0                 Open   ;
 P214                 J172                 J177                             8.7              50             110               0                 Open   ;
 P215                 J184                 J172                           68.37              40             110               0                 Open   ;
 P216                 J173                 J174                           20.93              75             120               0                 Open   ;
 P217                 J173                 J190                            42.5              75             120               0                 Open   ;
 P218                 J178                 J174                            7.55              50             120               0                 Open   ;
 P219                 J176                 J187                           33.74              50             110               0                 Open   ;
 P220                 J179                 J182                           10.27             100             110               0                 Open   ;
 P221                 J186                 J180                           55.92              50             110               0                 Open   ;
 P222                 J182                 J181                           13.69              50             110               0                 Open   ;
 P223                 J182                 J183                            4.94             100             110               0                 Open   ;
 P224                 J183                 J228                          118.47             100             110               0                 Open   ;
 P225                 J183                 J192                          121.55              50             110               0                 Open   ;
 P226                 J195                 J184                           96.71              50             110               0                 Open   ;
 P227                 J187                 J186                           37.94              75             110               0                 Open   ;
 P228                 J186                 J205                          116.41              75             110               0                 Open   ;
 P229                 J189                 J187                           31.85              75             110               0                 Open   ;
 P230                 J201                 J188                           28.11              75             110               0                 Open   ;
 P231                 J188                 J189                            2.73             150             110               0                 Open   ;
 P232                 J189                 J205                           33.67              75             110               0                 Open   ;
 P233                 J190                 J196                           14.03              50             120               0                 Open   ;
 P234                 J212                 J190                          152.89              50             110               0                 Open   ;
 P235                 J191                 J195                           20.29             150             110               0                 Open   ;
 P236                 J191                 J193                              10              40             110               0                 Open   ;
 P237                 J194                 J211                           96.25              50             120               0                 Open   ;
 P238                 J195                 J198                            7.99             150             110               0                 Open   ;
 P239                 J196                 J202                            9.06              75             120               0                 Open   ;
 P240                 J196                 J206                          293.06              50             110               0                 Open   ;
 P241                 J197                 J214                          205.25              50             120               0                 Open   ;
 P242                 J198                 J215                           71.18             150             110               0                 Open   ;
 P243                 J198                 J199                           25.43              40             110               0                 Open   ;
 P244                 J198                 J203                           10.76              40             110               0                 Open   ;
 P245                 J202                 J200                           11.26              50             120               0                 Open   ;
 P246                 J204                 J201                            4.82              75             110               0                 Open   ;
 P247                 J201                 J204                           37.92             150             110               0                 Open   ;
 P248                 J202                 J210                              21              75             120               0                 Open   ;
 P249                 J232                 J204                          118.81             150             110               0                 Open   ;
 P250                 J205                 J204                            2.82             150             110               0                 Open   ;
 P251                 J205                 J227                           62.88             150             110               0                 Open   ;
 P252                 J207                 J208                             8.3              50             110               0                 Open   ;
 P253                 J207                 J209                           19.54             100             110               0                 Open   ;
 P254                 J207                 J209                           18.93             100             110               0                 Open   ;
 P255                 J209                 J210                            1.92              50             120               0                 Open   ;
 P256                 J209                 J211                            2.07              50             120               0                 Open   ;
 P257                 J210                 J211                            0.69              75             120               0                 Open   ;
 P258                 J211                 J214                           20.51             100             110               0                 Open   ;
 P259                 J213                 J214                           57.74              50             110               0                 Open   ;
 P260                 J214                 J222                            15.1             100             110               0                 Open   ;
 P261                 J215                 J234                           61.37             150             110               0                 Open   ;
 P262                 J215                 J218                           34.87              50             110               0                 Open   ;
 P263                 J215                 J217                              12              50             110               0                 Open   ;
 P264                 J223                 J219                            34.9              50             110               0                 Open   ;
 P265                 J232                 J220                           87.71              40             110               0                 Open   ;
 P266                 J222                 J221                            25.1              50             110               0                 Open   ;
 P267                 J222                 J224                            1.49             100             110               0                 Open   ;
 P268                 J224                 J222                            1.54             100             110               0                 Open   ;
 P269                 J223                 J229                           18.09              50             110               0                 Open   ;
 P270                 J226                 J223                           45.51              50             110               0                 Open   ;
 P271                 J231                 J224                            27.4             100             110               0                 Open   ;
 P272                 J224                 J231                            27.4             100             110               0                 Open   ;
 P273                 J228                 J225                           23.17              50             110               0                 Open   ;
 P274                 J226                 J238                           39.46              50             110               0                 Open   ;
 P275                 J227                 J226                           13.25              50             110               0                 Open   ;
 P276                 J254                 J227                          164.68             150             110               0                 Open   ;
 P277                 J228                 J230                           20.99              50             110               0                 Open   ;
 P278                 J228                 J237                           23.89              50             110               0                 Open   ;
 P279                 J231                 J236                           36.85              50             120               0                 Open   ;
 P280                 J233                 J231                            41.8             200             120               0                 Open   ;
 P281                 J231                 J252                           475.9             150             110               0                 Open   ;
 P282                 J248                 J232                          410.44             150             110               0                 Open   ;
 P283                 J233                 J246                          243.24              50             110               0                 Open   ;
 P284                 J239                 J234                           31.77              50             110               0                 Open   ;
 P285                 J243                 J234                            67.5             150             110               0                 Open   ;
 P286                 J234                 J235                            7.11              50             110               0                 Open   ;
 P287                 J242                 J240                            7.04              50             110               0                 Open   ;
 P288                 J242                 J247                           92.84             150             110               0                 Open   ;
 P289                 J243                 J242                           47.32             150             110               0                 Open   ;
 P290                 J244                 J243                           26.23             100             110               0                 Open   ;
 P291                 J247                 J244                           73.66             100             110               0                 Open   ;
 P292                 J244                 J245                            8.73              50             110               0                 Open   ;
 P293                 J248                 J247                           44.55             150             110               0                 Open   ;
 P294                 J274                 J248                           95.92             100             110               0                 Open   ;
 P295                 J252                 J249                           17.37              50             110               0                 Open   ;
 P296                 J250                 J254                           34.56              50             110               0                 Open   ;
 P297                 J258                 J251                            7.17              50             110               0                 Open   ;
 P298                 J252                 J254                           90.46             150             110               0                 Open   ;
 P299                 J262                 J253                            8.62              50             110               0                 Open   ;
 P300                 J254                 J258                           49.23             100             110               0                 Open   ;
 P301                 J266                 J255                            9.18              50             120               0                 Open   ;
 P302                 J263                 J256                            7.04              50             120               0                 Open   ;
 P303                 J257                 J268                           32.08              50             110               0                 Open   ;
 P304                 J258                 J260                           41.37             100             110               0                 Open   ;
 P305                 J267                 J259                            8.34              50             120               0                 Open   ;
 P306                 J260                 J271                           12.06              50             110               0                 Open   ;
 P307                 J260                 J261                            7.36             100             110               0                 Open   ;
 P308                 J261                 J269                            10.1              50             110               0                 Open   ;
 P309                 J261                 J262                           13.58             100             110               0                 Open   ;
 P310                 J262                 J263                           30.28             100             110               0                 Open   ;
 P311                 J263                 J265                           19.59              50             120               0                 Open   ;
 P312                 J263                 J264                           13.58              50             120               0                 Open   ;
 P313                 J264                 J265                            6.01              50             120               0                 Open   ;
 P314                 J264                 J273                           11.81              50             120               0                 Open   ;
 P315                 J265                 J266                           16.66              50             120               0                 Open   ;
 P316                 J265                 J272                            8.64              50             120               0                 Open   ;
 P317                 J266                 J267                           46.58              50             120               0                 Open   ;
 P318                 J267                 J268                           21.25              50             120               0                 Open   ;
 P319                 J268                 J270                           49.44             100             110               0                 Open   ;
 P320                 J270                 J274                           14.06             100             110               0                 Open   ;
 P321                 J270                 J274                           15.03             100             110               0                 Open   ;
 P322                 J274                 J275                           10.58              50             110               0                 Open   ;

[PUMPS]
;ID                   Node1                Node2                Properties          

[VALVES]
;ID                   Node1                Node2                            Diameter Type              Setting           Minor Loss

[TAGS]
;type      name       tag       

[DEMANDS]
;ID        Demand     Pattern   

[STATUS]
;ID        Setting   

[PATTERNS]
;ID        Multipliers

PEAK 2.500000

[CURVES]
;ID         X-Value      Y-Value     

[CONTROLS]

[RULES]

[ENERGY]
GLOBAL PRICE           0.0000

[EMITTERS]
;ID        Flow coefficient

[QUALITY]

[SOURCES]
;Node      Type       Quality    Pattern   

[REACTIONS]
;Type           Pipe/Tank               Coefficient

 ORDER BULK 1
 ORDER TANK 1
 ORDER WALL 1
 GLOBAL BULK 0.0000    
 GLOBAL WALL 0.0000    

[MIXING]
;Tank ID             Model Fraction

[TIMES]
DURATION             00:00:00
HYDRAULIC TIMESTEP   01:00:00
QUALITY TIMESTEP     00:06:00
PATTERN TIMESTEP     01:00:00
PATTERN START        00:00:00
REPORT TIMESTEP      01:00:00
REPORT START         00:00:00
START CLOCKTIME      00:00:00 AM
RULE TIMESTEP        00:06:00
STATISTIC            NONE      

[REPORT]

[OPTIONS]
UNITS                LPS                 
HEADLOSS             H-W                 
SPECIFIC GRAVITY     1
VISCOSITY            1
TRIALS               200
ACCURACY             0.001
CHECKFREQ            2
MAXCHECK             10
UNBALANCED           STOP                
PATTERN              1                   
DEMAND MULTIPLIER    1
EMITTER EXPONENT     0.5
QUALITY              NONE                
DIFFUSIVITY          1
TOLERANCE            0.01

[COORDINATES]
;Node      X-Coord    Y-Coord   
J1             280144.042000000    2117131.005000000
J2             280170.262000000    2117149.483000000
J3             280193.540000000    2117144.482000000
J4             280193.833000000    2116875.828000000
J5             280206.209000000    2117305.695000000
J6             280235.756000000    2117301.837000000
J7             280237.353000000    2117307.861000000
J8             280247.755000000    2117211.087000000
J9             280319.849000000    2115993.528000000
J10            280320.266000000    2115964.571000000
J11            280331.683000000    2115943.287000000
J12            280354.611000000    2115943.297000000
J13            280360.433000000    2116895.718000000
J14            280383.253000000    2115951.067000000
J15            280383.691000000    2115957.949000000
J16            280397.027000000    2115951.395000000
J17            280397.136000000    2115942.655000000
J18            280397.464000000    2115932.386000000
J19            280404.721000000    2115998.751000000
J20            280405.088000000    2116893.568000000
J21            280416.703000000    2115942.973000000
J22            280416.758000000    2115942.293000000
J23            280427.986000000    2115916.500000000
J24            280429.151000000    2115962.123000000
J25            280432.464000000    2116899.724000000
J26            280448.752000000    2116893.124000000
J27            280451.775000000    2117173.713000000
J28            280453.071000000    2116793.447000000
J29            280466.595000000    2116007.581000000
J30            280468.373000000    2115951.643000000
J31            280498.220000000    2116031.073000000
J32            280515.731000000    2117181.222000000
J33            280519.063000000    2116005.265000000
J34            280523.780000000    2116030.826000000
J35            280527.785000000    2117472.590000000
J36            280552.471000000    2116874.651000000
J37            280557.697000000    2116343.929000000
J38            280562.339000000    2116865.362000000
J39            280574.022000000    2116861.869000000
J40            280576.379000000    2116951.250000000
J41            280577.794000000    2116858.620000000
J42            280578.552000000    2116302.115000000
J43            280580.717000000    2116173.606000000
J44            280585.629000000    2116143.013000000
J45            280586.773000000    2116117.181000000
J46            280587.358000000    2116471.393000000
J47            280592.750000000    2116223.071000000
J48            280598.841000000    2116170.057000000
J49            280602.935000000    2116113.678000000
J50            280606.162000000    2116643.137000000
J51            280607.894000000    2116557.013000000
J52            280610.264000000    2116219.872000000
J53            280611.631000000    2116354.588000000
J54            280615.970000000    2116056.560000000
J55            280616.459000000    2116518.743000000
J56            280619.055000000    2116275.681000000
J57            280619.297000000    2117463.971000000
J58            280620.894000000    2117524.905000000
J59            280622.228000000    2116313.185000000
J60            280624.364000000    2117523.842000000
J61            280630.653000000    2117525.225000000
J62            280630.728000000    2117575.086000000
J63            280633.373000000    2117516.567000000
J64            280636.289000000    2117501.502000000
J65            280637.405000000    2117501.845000000
J66            280637.730000000    2117187.067000000
J67            280637.828000000    2116201.925000000
J68            280641.404000000    2117187.243000000
J69            280641.841000000    2115979.004000000
J70            280642.129000000    2117189.622000000
J71            280643.031000000    2117527.948000000
J72            280643.564000000    2116034.311000000
J73            280645.213000000    2117519.589000000
J74            280646.841000000    2117468.552000000
J75            280648.687000000    2115988.474000000
J76            280648.886000000    2117505.374000000
J77            280652.436000000    2117447.921000000
J78            280652.953000000    2117448.012000000
J79            280653.816000000    2115989.834000000
J80            280654.900000000    2115982.850000000
J81            280656.112000000    2116063.885000000
J82            280656.591000000    2117187.971000000
J83            280657.664000000    2117140.292000000
J84            280657.993000000    2117470.407000000
J85            280659.520000000    2116303.716000000
J86            280661.699000000    2117200.982000000
J87            280661.734000000    2117202.982000000
J88            280662.312000000    2116029.513000000
J89            280663.350000000    2117449.842000000
J90            280666.553000000    2116321.452000000
J91            280667.287000000    2117184.327000000
J92            280668.473000000    2116090.652000000
J93            280669.331000000    2116254.703000000
J94            280669.504000000    2117289.154000000
J95            280672.263000000    2117198.614000000
J96            280672.424000000    2116122.708000000
J97            280672.949000000    2117200.584000000
J98            280673.102000000    2116051.829000000
J99            280676.311000000    2117180.351000000
J100           280678.818000000    2117353.668000000
J101           280679.151000000    2117287.037000000
J102           280680.570000000    2117221.850000000
J103           280681.572000000    2116221.149000000
J104           280684.356000000    2116261.118000000
J105           280688.724000000    2117352.885000000
J106           280689.113000000    2117351.394000000
J107           280690.536000000    2117345.942000000
J108           280692.305000000    2117350.689000000
J109           280692.807000000    2117255.590000000
J110           280692.900000000    2117352.284000000
J111           280694.772000000    2116224.171000000
J112           280694.889000000    2116094.207000000
J113           280695.821000000    2117213.442000000
J114           280696.286000000    2116178.781000000
J115           280702.902000000    2116096.189000000
J116           280702.902000000    2116720.316000000
J117           280703.348000000    2117253.020000000
J118           280705.955000000    2116703.626000000
J119           280707.580000000    2116341.134000000
J120           280711.747000000    2116597.376000000
J121           280712.686000000    2116329.380000000
J122           280713.046000000    2116564.858000000
J123           280714.095000000    2116466.584000000
J124           280717.111000000    2116140.268000000
J125           280717.260000000    2115971.270000000
J126           280724.166000000    2116338.995000000
J127           280724.257000000    2117321.619000000
J128           280728.316000000    2116147.276000000
J129           280737.712000000    2117019.488000000
J130           280737.821000000    2117201.686000000
J131           280743.876000000    2116110.876000000
J132           280746.746000000    2116274.927000000
J133           280751.768000000    2116064.426000000
J134           280756.436000000    2116282.946000000
J135           280759.225000000    2117029.568000000
J136           280761.586000000    2116069.907000000
J137           280768.471000000    2116292.906000000
J138           280769.167000000    2116325.516000000
J139           280772.215000000    2116218.352000000
J140           280772.577000000    2116014.269000000
J141           280776.620000000    2116298.842000000
J142           280777.145000000    2117177.251000000
J143           280780.575000000    2116229.217000000
J144           280791.446000000    2116243.345000000
J145           280791.638000000    2117495.748000000
J146           280794.148000000    2117435.064000000
J147           280796.837000000    2117494.546000000
J148           280797.772000000    2117440.067000000
J149           280798.247000000    2117502.266000000
J150           280798.925000000    2117441.657000000
J151           280799.007000000    2117494.613000000
J152           280799.668000000    2116163.456000000
J153           280802.089000000    2116247.599000000
J154           280803.040000000    2117447.338000000
J155           280806.631000000    2116171.221000000
J156           280814.948000000    2117189.330000000
J157           280818.661000000    2116184.639000000
J158           280823.715000000    2117214.889000000
J159           280825.731000000    2116107.447000000
J160           280826.468000000    2116127.067000000
J161           280827.664000000    2117275.096000000
J162           280830.949000000    2116324.222000000
J163           280831.676000000    2116189.046000000
J164           280832.587000000    2116113.446000000
J165           280837.441000000    2117020.426000000
J166           280839.396000000    2117275.096000000
J167           280839.396000000    2117282.504000000
J168           280841.734000000    2117187.663000000
J169           280842.358000000    2116133.519000000
J170           280845.715000000    2117354.393000000
J171           280845.788000000    2116337.629000000
J172           280846.159000000    2116125.320000000
J173           280847.347000000    2117222.224000000
J174           280847.347000000    2117243.156000000
J175           280849.830000000    2116058.189000000
J176           280852.726000000    2116808.098000000
J177           280854.385000000    2116128.163000000
J178           280854.899000000    2117243.156000000
J179           280855.403000000    2116324.931000000
J180           280860.357000000    2116880.982000000
J181           280863.063000000    2116311.810000000
J182           280865.664000000    2116325.253000000
J183           280870.599000000    2116325.408000000
J184           280874.915000000    2116063.288000000
J185           280875.778000000    2116633.391000000
J186           280879.905000000    2116843.135000000
J187           280882.411000000    2116805.274000000
J188           280884.627000000    2116770.783000000
J189           280884.647000000    2116773.514000000
J190           280889.540000000    2117217.110000000
J191           280889.819000000    2116152.531000000
J192           280894.507000000    2116216.576000000
J193           280896.209000000    2116151.690000000
J194           280900.960000000    2117178.329000000
J195           280903.400000000    2116146.030000000
J196           280903.566000000    2117217.565000000
J197           280904.782000000    2117067.183000000
J198           280910.801000000    2116149.042000000
J199           280912.029000000    2116167.387000000
J200           280912.229000000    2117229.112000000
J201           280912.609000000    2116772.975000000
J202           280912.617000000    2117217.858000000
J203           280913.026000000    2116138.516000000
J204           280917.428000000    2116773.162000000
J205           280918.191000000    2116775.826000000
J206           280921.983000000    2116928.834000000
J207           280931.515000000    2117239.278000000
J208           280932.233000000    2117247.547000000
J209           280933.411000000    2117220.444000000
J210           280933.604000000    2117218.532000000
J211           280934.288000000    2117218.572000000
J212           280945.011000000    2117338.524000000
J213           280949.722000000    2117276.657000000
J214           280954.786000000    2117219.228000000
J215           280956.373000000    2116202.371000000
J216           280965.103000000    2117400.663000000
J217           280965.310000000    2116194.362000000
J218           280965.879000000    2116229.206000000
J219           280965.902000000    2116862.836000000
J220           280969.149000000    2116677.530000000
J221           280969.879000000    2117194.563000000
J222           280969.879000000    2117219.667000000
J223           280970.614000000    2116828.403000000
J224           280971.373000000    2117219.710000000
J225           280974.249000000    2116367.113000000
J226           280980.533000000    2116791.438000000
J227           280981.030000000    2116778.196000000
J228           280984.110000000    2116346.142000000
J229           280988.700000000    2116828.419000000
J230           280991.707000000    2116334.023000000
J231           280998.759000000    2117220.506000000
J232           280999.693000000    2116735.462000000
J233           281000.852000000    2117262.207000000
J234           281003.618000000    2116234.590000000
J235           281005.549000000    2116227.748000000
J236           281006.471000000    2117191.591000000
J237           281007.961000000    2116347.460000000
J238           281012.633000000    2116794.154000000
J239           281012.715000000    2116256.175000000
J240           281013.167000000    2116330.718000000
J241           281014.384000000    2116443.441000000
J242           281019.954000000    2116332.600000000
J243           281030.902000000    2116296.264000000
J244           281051.927000000    2116292.667000000
J245           281060.116000000    2116289.635000000
J246           281077.826000000    2117207.166000000
J247           281080.062000000    2116360.743000000
J248           281087.026000000    2116401.763000000
J249           281097.996000000    2116821.025000000
J250           281104.749000000    2116756.963000000
J251           281111.136000000    2116686.326000000
J252           281111.735000000    2116824.973000000
J253           281113.352000000    2116624.997000000
J254           281115.566000000    2116734.596000000
J255           281116.465000000    2116558.015000000
J256           281116.465000000    2116592.928000000
J257           281117.348000000    2116469.769000000
J258           281118.249000000    2116685.438000000
J259           281120.038000000    2116508.623000000
J260           281120.597000000    2116644.130000000
J261           281121.015000000    2116636.778000000
J262           281121.786000000    2116623.224000000
J263           281123.505000000    2116592.988000000
J264           281124.276000000    2116579.431000000
J265           281124.617000000    2116573.428000000
J266           281125.563000000    2116556.799000000
J267           281128.207000000    2116510.293000000
J268           281129.413000000    2116489.073000000
J269           281131.014000000    2116638.235000000
J270           281132.220000000    2116439.711000000
J271           281132.442000000    2116646.412000000
J272           281133.217000000    2116572.551000000
J273           281136.074000000    2116578.911000000
J274           281146.226000000    2116438.535000000
J275           281155.180000000    2116440.162000000
R1             280670.213000000    2117544.589000000

[VERTICES]
;Link      X-Coord    Y-Coord   

[LABELS]

[BACKDROP]
UNITS    NONE

[END]
